peakDumbCharging = 11100; 
Machine = anon_enum(16); 
machineSpeed = [3700,3700,3700,3700,3700,3700,3700,3700,3700,3700,3700,3700,3700,3700,3700,3700]; 
machineLoad = [3700,3700,3700,3700,3700,3700,3700,3700,3700,3700,3700,3700,3700,3700,3700,3700]; 
Car = anon_enum(13); 
demandCar = [7600,26040,5040,6000,11880,2400,5920,4040,15800,6840,8480,7240,10120]; 
arrivalCar = [79,76,69,67,66,64,63,62,53,48,47,40,39]; 
departureCar = [82,85,72,70,71,66,65,64,61,53,53,43,43]; 
